amountOfEmployees = 75;
horizonLength = 7;
amountOfShifts = 4;

shiftsPerDay = [|31,8,7,0,
|21,29,0,0,
|33,9,7,0,
|9,2,2,0,
|26,24,0,0,
|2,4,0,0,
|7,9,32,0,
|];

preferences = array3d(1..75,1..7,1..4,[3,3,3,3,1,3,3,3,1,3,3,3,4,3,4,3,3,3,3,3,4,3,4,3,4,3,4,3,3,3,3,3,2,4,4,4,2,4,4,4,1,4,1,4,3,3,3,3,1,4,1,4,1,4,1,4,1,1,1,1,2,4,4,4,2,4,4,4,2,4,2,4,1,1,1,1,2,4,2,4,2,4,2,4,1,2,1,1,4,3,3,3,4,3,3,3,1,3,1,3,1,2,1,1,1,3,1,3,1,3,1,3,1,4,1,1,1,2,2,2,1,2,2,2,1,2,1,2,1,4,1,1,1,2,1,2,1,2,1,2,3,2,3,3,2,3,3,3,2,3,3,3,4,3,4,3,3,2,3,3,4,3,4,3,4,3,4,3,2,2,2,2,1,2,2,2,1,2,2,2,3,2,3,2,2,2,2,2,3,2,3,2,3,2,3,2,2,1,2,2,4,1,1,1,4,1,1,1,1,1,1,1,2,1,2,2,1,1,1,1,1,1,1,1,2,1,2,2,2,2,2,2,2,2,2,2,1,2,1,2,2,1,2,2,1,2,1,2,1,2,1,2,2,3,2,2,2,1,1,1,2,1,1,1,2,1,2,1,2,3,2,2,2,1,2,1,2,1,2,1,4,3,4,4,1,2,2,2,1,2,2,2,2,2,2,2,4,3,4,4,2,2,2,2,2,2,2,2,2,3,2,2,3,3,3,3,3,3,3,3,1,3,1,3,2,3,2,2,1,3,1,3,1,3,1,3,2,2,2,2,4,2,2,2,4,2,2,2,3,2,3,2,2,2,2,2,3,2,3,2,3,2,3,2,1,3,1,1,2,2,2,2,2,2,2,2,1,2,1,2,1,3,1,1,1,2,1,2,1,2,1,2,1,3,1,1,2,2,2,2,2,2,2,2,1,2,1,2,1,3,1,1,1,2,1,2,1,2,1,2,3,2,3,3,2,1,1,1,2,1,1,1,3,1,3,1,3,2,3,3,3,1,3,1,3,1,3,1,1,2,1,1,3,1,1,1,3,1,1,1,2,1,2,1,1,2,1,1,2,1,2,1,2,1,2,1,3,3,3,3,3,1,1,1,3,1,1,1,1,1,1,1,3,3,3,3,1,1,1,1,1,1,1,1,1,2,1,1,1,2,2,2,1,2,2,2,1,2,1,2,1,2,1,1,1,2,1,2,1,2,1,2,2,3,2,2,2,1,1,1,2,1,1,1,4,1,4,1,2,3,2,2,4,1,4,1,4,1,4,1,1,3,1,1,3,3,3,3,3,3,3,3,3,3,3,3,1,3,1,1,3,3,3,3,3,3,3,3,1,4,1,1,3,1,1,1,3,1,1,1,2,1,2,1,1,4,1,1,2,1,2,1,2,1,2,1,3,3,3,3,1,2,2,2,1,2,2,2,3,2,3,2,3,3,3,3,3,2,3,2,3,2,3,2,3,4,3,3,2,1,1,1,2,1,1,1,1,1,1,1,3,4,3,3,1,1,1,1,1,1,1,1,1,3,1,1,2,3,3,3,2,3,3,3,3,3,3,3,1,3,1,1,3,3,3,3,3,3,3,3,1,2,1,1,2,3,3,3,2,3,3,3,1,3,1,3,1,2,1,1,1,3,1,3,1,3,1,3,3,2,3,3,3,1,1,1,3,1,1,1,1,1,1,1,3,2,3,3,1,1,1,1,1,1,1,1,2,2,2,2,3,3,3,3,3,3,3,3,2,3,2,3,2,2,2,2,2,3,2,3,2,3,2,3,4,1,4,4,1,1,1,1,1,1,1,1,2,1,2,1,4,1,4,4,2,1,2,1,2,1,2,1,1,2,1,1,1,2,2,2,1,2,2,2,1,2,1,2,1,2,1,1,1,2,1,2,1,2,1,2,3,2,3,3,1,3,3,3,1,3,3,3,1,3,1,3,3,2,3,3,1,3,1,3,1,3,1,3,2,1,2,2,3,1,1,1,3,1,1,1,4,1,4,1,2,1,2,2,4,1,4,1,4,1,4,1,1,3,1,1,1,3,3,3,1,3,3,3,2,3,2,3,1,3,1,1,2,3,2,3,2,3,2,3,2,4,2,2,1,2,2,2,1,2,2,2,2,2,2,2,2,4,2,2,2,2,2,2,2,2,2,2,2,1,2,2,1,2,2,2,1,2,2,2,3,2,3,2,2,1,2,2,3,2,3,2,3,2,3,2,2,3,2,2,2,3,3,3,2,3,3,3,2,3,2,3,2,3,2,2,2,3,2,3,2,3,2,3,3,2,3,3,2,3,3,3,2,3,3,3,1,3,1,3,3,2,3,3,1,3,1,3,1,3,1,3,3,1,3,3,1,1,1,1,1,1,1,1,3,1,3,1,3,1,3,3,3,1,3,1,3,1,3,1,2,3,2,2,3,4,4,4,3,4,4,4,3,4,3,4,2,3,2,2,3,4,3,4,3,4,3,4,1,1,1,1,3,2,2,2,3,2,2,2,3,2,3,2,1,1,1,1,3,2,3,2,3,2,3,2,1,1,1,1,4,3,3,3,4,3,3,3,4,3,4,3,1,1,1,1,4,3,4,3,4,3,4,3,4,1,4,4,2,2,2,2,2,2,2,2,3,2,3,2,4,1,4,4,3,2,3,2,3,2,3,2,1,2,1,1,3,2,2,2,3,2,2,2,1,2,1,2,1,2,1,1,1,2,1,2,1,2,1,2,2,1,2,2,2,2,2,2,2,2,2,2,2,2,2,2,2,1,2,2,2,2,2,2,2,2,2,2,1,1,1,1,3,3,3,3,3,3,3,3,2,3,2,3,1,1,1,1,2,3,2,3,2,3,2,3,1,1,1,1,1,1,1,1,1,1,1,1,3,1,3,1,1,1,1,1,3,1,3,1,3,1,3,1,3,3,3,3,3,3,3,3,3,3,3,3,2,3,2,3,3,3,3,3,2,3,2,3,2,3,2,3,3,2,3,3,2,2,2,2,2,2,2,2,2,2,2,2,3,2,3,3,2,2,2,2,2,2,2,2,3,1,3,3,3,4,4,4,3,4,4,4,3,4,3,4,3,1,3,3,3,4,3,4,3,4,3,4,2,3,2,2,2,2,2,2,2,2,2,2,3,2,3,2,2,3,2,2,3,2,3,2,3,2,3,2,2,1,2,2,1,1,1,1,1,1,1,1,1,1,1,1,2,1,2,2,1,1,1,1,1,1,1,1,4,3,4,4,2,1,1,1,2,1,1,1,3,1,3,1,4,3,4,4,3,1,3,1,3,1,3,1,3,2,3,3,2,1,1,1,2,1,1,1,3,1,3,1,3,2,3,3,3,1,3,1,3,1,3,1,3,1,3,3,1,2,2,2,1,2,2,2,3,2,3,2,3,1,3,3,3,2,3,2,3,2,3,2,1,1,1,1,2,3,3,3,2,3,3,3,2,3,2,3,1,1,1,1,2,3,2,3,2,3,2,3,3,2,3,3,3,1,1,1,3,1,1,1,2,1,2,1,3,2,3,3,2,1,2,1,2,1,2,1,1,2,1,1,3,1,1,1,3,1,1,1,1,1,1,1,1,2,1,1,1,1,1,1,1,1,1,1,3,2,3,3,2,3,3,3,2,3,3,3,3,3,3,3,3,2,3,3,3,3,3,3,3,3,3,3,3,1,3,3,4,3,3,3,4,3,3,3,1,3,1,3,3,1,3,3,1,3,1,3,1,3,1,3,3,1,3,3,2,3,3,3,2,3,3,3,3,3,3,3,3,1,3,3,3,3,3,3,3,3,3,3,2,2,2,2,1,2,2,2,1,2,2,2,2,2,2,2,2,2,2,2,2,2,2,2,2,2,2,2,4,2,4,4,1,4,4,4,1,4,4,4,2,4,2,4,4,2,4,4,2,4,2,4,2,4,2,4,3,1,3,3,3,2,2,2,3,2,2,2,3,2,3,2,3,1,3,3,3,2,3,2,3,2,3,2,2,2,2,2,3,1,1,1,3,1,1,1,2,1,2,1,2,2,2,2,2,1,2,1,2,1,2,1,1,2,1,1,2,3,3,3,2,3,3,3,2,3,2,3,1,2,1,1,2,3,2,3,2,3,2,3,1,2,1,1,2,2,2,2,2,2,2,2,1,2,1,2,1,2,1,1,1,2,1,2,1,2,1,2,2,1,2,2,3,2,2,2,3,2,2,2,1,2,1,2,2,1,2,2,1,2,1,2,1,2,1,2,3,2,3,3,1,1,1,1,1,1,1,1,4,1,4,1,3,2,3,3,4,1,4,1,4,1,4,1,3,2,3,3,2,3,3,3,2,3,3,3,2,3,2,3,3,2,3,3,2,3,2,3,2,3,2,3,1,3,1,1,1,2,2,2,1,2,2,2,3,2,3,2,1,3,1,1,3,2,3,2,3,2,3,2,1,2,1,1,4,2,2,2,4,2,2,2,3,2,3,2,1,2,1,1,3,2,3,2,3,2,3,2,1,3,1,1,3,1,1,1,3,1,1,1,3,1,3,1,1,3,1,1,3,1,3,1,3,1,3,1,4,4,4,4,3,2,2,2,3,2,2,2,2,2,2,2,4,4,4,4,2,2,2,2,2,2,2,2,1,1,1,1,2,4,4,4,2,4,4,4,2,4,2,4,1,1,1,1,2,4,2,4,2,4,2,4,2,4,2,2,1,1,1,1,1,1,1,1,2,1,2,1,2,4,2,2,2,1,2,1,2,1,2,1,]);

minShifts = 5;
maxShifts = 5;
minConsecShifts = 2;
maxConsecShifts = 5;

minConsecSameShifts = [1,1,1,1];
maxConsecSameShifts = [7,7,7,7];

minPerShifts = [0,0,0,0];
maxPerShifts = [7,7,7,7];